benchmarks/bfuzz0/2743215212262293034157361572439931930.smt2
(set-logic QF_FP)
(declare-const x0 (_ FloatingPoint 11 53))
(declare-const x1 (_ FloatingPoint 11 53))
(declare-const x2 (_ FloatingPoint 11 53))
(declare-const x3 (_ FloatingPoint 11 53))
(declare-const x4 (_ FloatingPoint 11 53))
(declare-const x5 (_ FloatingPoint 11 53))
(declare-const x6 (_ FloatingPoint 11 53))
(declare-const x7 (_ FloatingPoint 11 53))
(assert (fp.gt (fp.neg x7) (fp.neg x3)))
(assert (fp.eq (fp.add RNE x6 x4) (fp.add RNE x3 x4)))
(assert (fp.lt (fp.add RNE x1 x0) (fp.mul RNE x2 x2)))
(assert (fp.geq (fp.mul RNE x6 x2) (fp.neg x1)))
(assert (fp.eq (fp.sub RNE x3 x5) (fp.neg x1)))
(assert (fp.lt (fp.mul RNE x5 x3) (fp.mul RNE x1 x6)))
(check-sat)
