db/data/2743215212262293034157361572439931930.z3.out
sat
-------------------
28.756835434
